183	32	4	93	
10	10	10	10

0	0	0	0	0	0	3	1	4	10
1	0	1	1	2	5	2	7	2
2	1	3	3	0	3	1	3
3	3	3	0	5	9	2	18	5
4	3	4	4	0	5	2	7	6
5	6	0	2	2	2	2	11	6
6	8	4	5	0	1	2	12	8
7	6	0	5	5	9	3	18	13	11
8	3	4	4	0	10	2	23	9
9	0	5	2	1	8	2	14	13
10	0	5	5	10	9	2	23	13
11	3	5	5	0	9	3	26	23	15
12	0	5	7	8	4	3	26	23	16
13	2	0	3	2	10	2	26	15
14	7	2	0	2	9	2	26	16
15	5	3	5	0	6	1	16
16	0	4	7	5	2	3	30	22	17
17	4	0	2	2	2	2	20	19
18	1	3	0	2	8	3	24	23	22
19	3	3	0	3	5	2	28	21
20	6	6	1	0	6	3	29	27	25
21	6	6	0	5	3	2	27	24
22	4	0	5	5	5	2	28	27
23	0	5	5	5	4	2	30	27
24	0	4	4	5	3	1	29
25	4	0	2	5	6	1	28
26	2	0	6	3	9	1	27
27	0	7	5	4	10	1	31
28	5	4	0	4	8	1	31
29	2	2	6	0	5	1	31
30	4	0	2	3	8	1	31
31	0	0	0	0	0	0
